
Gurobi 6.0.4 (win64) logging started 06/16/15 10:58:27

Read LP format model from file E:\Eigene Dateien\Downloads\Michi shit\VRPTWMS-master\VRPTWMS\instances\mip\fuel\N8-C_DV100-C_SV25_F5_8_No_1.lp
Reading time = 0.00 seconds
(null): 417 rows, 208 columns, 1715 nonzeros
Optimize a model with 417 rows, 208 columns and 1715 nonzeros
Model has 576 quadratic constraints
WARNING: Only barrier available for SOCP models
Coefficient statistics:
  Matrix range    [1e+00, 1e+06]
  Objective range [8e+04, 1e+07]
  Bounds range    [1e+00, 1e+06]
  RHS range       [1e+00, 1e+06]
Presolve removed 49 rows and 29 columns
Presolve time: 0.03s
Presolved: 1292 rows, 662 columns, 6351 nonzeros
Variable types: 441 continuous, 221 integer (179 binary)
Optimize a model with 1292 rows, 662 columns and 6351 nonzeros
Coefficient statistics:
  Matrix range    [1e+00, 2e+06]
  Objective range [8e+04, 1e+07]
  Bounds range    [1e+00, 1e+06]
  RHS range       [1e+00, 1e+06]

Concurrent LP optimizer: dual simplex and barrier
Showing barrier log only...

Presolve removed 133 rows and 85 columns
Presolved: 1159 rows, 578 columns, 5744 nonzeros

Root barrier log...

Ordering time: 0.02s

Barrier performed 0 iterations in 0.06 seconds
Barrier solve interrupted - model solved by another algorithm


Solved with dual simplex
Solved in 97 iterations and 0.06 seconds
Optimal objective  1.344907685e+07

Root relaxation: objective 1.344908e+07, 97 iterations, 0.03 seconds

    Nodes    |    Current Node    |     Objective Bounds      |     Work
 Expl Unexpl |  Obj  Depth IntInf | Incumbent    BestBd   Gap | It/Node Time

     0     0 1.3449e+07    0   27          - 1.3449e+07      -     -    0s
H    0     0                    7.412140e+07 1.3449e+07  81.9%     -    0s
H    0     0                    6.376890e+07 1.3449e+07  78.9%     -    0s
     0     0 2.1632e+07    0   20 6.3769e+07 2.1632e+07  66.1%     -    0s
H    0     0                    5.334410e+07 2.1632e+07  59.4%     -    0s
     0     0 2.1795e+07    0    7 5.3344e+07 2.1795e+07  59.1%     -    0s
     0     0 2.1795e+07    0    8 5.3344e+07 2.1795e+07  59.1%     -    0s
     0     0 2.1795e+07    0    6 5.3344e+07 2.1795e+07  59.1%     -    0s
     0     0 2.1795e+07    0    6 5.3344e+07 2.1795e+07  59.1%     -    0s
H    0     0                    4.324440e+07 2.1795e+07  49.6%     -    0s
     0     2 2.1795e+07    0    6 4.3244e+07 2.1795e+07  49.6%     -    0s
*   76    41              25    4.287300e+07 2.1891e+07  48.9%  15.1    0s
H  190   145                    4.281860e+07 2.1896e+07  48.9%  15.4    0s
H  394   232                    4.280850e+07 2.2040e+07  48.5%  19.0    0s
*  422   203              27    3.278380e+07 2.2040e+07  32.8%  19.6    0s
H  991   428                    3.272830e+07 2.2184e+07  32.2%  19.6    0s
* 2524   825              30    3.266340e+07 2.2363e+07  31.5%  23.8    2s
* 2609   774              32    3.219890e+07 2.2363e+07  30.5%  24.9    2s

Cutting planes:
  Gomory: 6
  Implied bound: 4
  Clique: 3
  MIR: 2
  Flow cover: 11
  GUB cover: 3
  Zero half: 10

Explored 4110 nodes (165676 simplex iterations) in 3.94 seconds
Thread count was 4 (of 4 available processors)

Optimal solution found (tolerance 1.00e-04)
Best objective 3.219890000000e+07, best bound 3.219890000000e+07, gap 0.0%
k_c1	930000.0000000002
k_c2	80000.0
k_c3	20000.0
k_c4	910000.0000000002
k_c5	109999.99999999985
k_c6	1000000.0
k_c7	1000000.0
k_c8	970000.0000000002
k_dN	-0.0
o_1	-0.0
o_2	-0.0
o_3	-0.0
o_4	-0.0
o_5	-0.0
o_6	-0.0
o_7	-0.0
o_8	-0.0
p_1	0.0
p_2	-0.0
p_3	-0.0
p_4	0.0
p_5	0.0
p_6	0.0
p_7	-0.0
p_8	0.0
phi_c1	20123.0
phi_c2	20083.0
phi_c3	14731.0
phi_c4	10784.0
phi_c5	32861.0
phi_c6	37765.0
phi_c7	41203.0
phi_c8	28446.0
phi_dN	-0.0
pi_c1	-0.0
pi_c2	-0.0
pi_c3	-0.0
pi_c4	-0.0
pi_c5	-0.0
pi_c6	-0.0
pi_c7	-0.0
pi_c8	-0.0
pi_dN	-0.0
tauD_c1	600000.0
tauD_c2	547750.0
tauD_c3	759825.0
tauD_c4	728275.0
tauD_c5	450000.0
tauD_c6	65175.00000000012
tauD_c7	50000.0
tauD_c8	250000.0
tauD_d0	-0.0
tauD_dN	1000000.0
tauS_c1	844425.0
tauS_c2	-0.0
tauS_c3	-0.0
tauS_c4	19625.0
tauS_c5	-0.0
tauS_c6	829850.0
tauS_c7	813650.0
tauS_c8	41600.0
tauS_d0	-0.0
tauS_dN	1000000.0
x_c1_c3	1.0
x_c2_dN	1.0
x_c3_dN	1.0
x_c4_dN	1.0
x_c5_c2	1.0
x_c6_c8	1.0
x_c7_c1	1.0
x_c8_c4	1.0
x_d0_c5	1.0
x_d0_c6	1.0
x_d0_c7	1.0
